data/solutions/planning/wellformed/moderate/weighting/wellformed_moderate_instance82_gurobi.sol
Elapsed time: 13.5
Nodes explored: 187864
Nodes left: 1
Relative gap: 0.0
Upper bound: 160649.0
Lower bound: 160649
C[0]=2550.0
C[1]=2550.0
C[2]=2550.0
C[3]=2550.0
C[4]=2550.0
C[5]=2549.0
y[0]=0
y[1]=0
y[2]=3
y[3]=5
y[4]=2
y[5]=4
y[6]=4
y[7]=5
y[8]=3
y[9]=3
y[10]=3
y[11]=0
y[12]=1
y[13]=1
y[14]=2
y[15]=0
y[16]=5
y[17]=5
y[18]=5
y[19]=2
y[20]=1
y[21]=1
y[22]=1
y[23]=2
y[24]=4
y[25]=4
y[26]=4
y[27]=3
y[28]=5
y[29]=2
